29436
107,472,544,593,732,778,865,928,935,951,1086,1098,1147,1335,1336,1536,1539,1731,1793,1867,1890,2038,2117,2382,2425,2464,2605,2641,2765,2808,3175,3219,3230,3443,3497,3501,3832,3838,3925,3952,4023,4026,4107,4131,4213,4291,4308,4317,4325,4646,4737,4754
